p edge 20 86 8
v 1 5
v 3 6 11 13
v 2 7 12
v 2 1 16
v 1 15
v 3 8 17 20
v 4 4 9 18 19
v 4 2 3 10 14
e 1 3
e 1 8
e 1 9
e 1 10
e 1 12
e 1 15
e 1 16
e 1 17
e 1 18
e 1 19
e 2 3
e 2 5
e 2 7
e 2 10
e 2 11
e 2 13
e 2 14
e 2 15
e 2 16
e 2 17
e 2 20
e 3 6
e 3 7
e 3 9
e 3 13
e 3 17
e 3 19
e 4 5
e 4 6
e 4 9
e 4 11
e 4 12
e 4 20
e 5 6
e 5 8
e 5 11
e 5 12
e 5 13
e 5 14
e 5 15
e 5 16
e 5 17
e 5 19
e 5 20
e 6 7
e 6 8
e 6 11
e 6 15
e 6 16
e 6 18
e 6 19
e 7 8
e 7 12
e 7 15
e 7 16
e 7 20
e 8 12
e 8 14
e 8 17
e 8 19
e 9 11
e 9 14
e 9 19
e 9 20
e 10 12
e 10 13
e 10 16
e 10 17
e 11 13
e 11 18
e 11 20
e 12 13
e 12 14
e 12 16
e 12 19
e 13 17
e 13 18
e 14 16
e 14 17
e 14 19
e 15 16
e 15 18
e 16 17
e 16 18
e 16 19
e 17 19
